
List of user-set options:

                                    Name   Value                used
                           compl_inf_tol = 1                     yes
                         constr_viol_tol = 1                     yes
                            dual_inf_tol = 1000                  yes
                           linear_solver = ma97                  yes
                              ma86_small = 1e-30                  no
                                  ma86_u = 0.0001                 no
                              ma97_order = best                  yes
                              ma97_small = 1e-30                 yes
                            ma97_switch1 = at_start              yes
                            ma97_switch2 = od_hd_reuse           yes
                                  ma97_u = 1e-06                 yes
                               ma97_umax = 0.5                   yes
                                max_iter = 1000                  yes
                    max_refinement_steps = 20                    yes
                    min_refinement_steps = 5                     yes
                                 mu_init = 1e-06                 yes
           mu_superlinear_decrease_power = 1.25                  yes
                   nlp_scaling_min_value = 1e-08                 yes
                        option_file_name = Preset_Case:_816_NCP.opt  yes
                             output_file = ./tmp/Preset_Case:_816_NCP.output  yes
                      print_user_options = yes                   yes
        required_infeasibility_reduction = 1                      no
                                     tol = 1e-08                 yes
                   warm_start_bound_frac = 1e-20                 yes
                   warm_start_bound_push = 1e-20                 yes
                   warm_start_init_point = yes                   yes
              warm_start_mult_bound_push = 1e-20                 yes
                warm_start_mult_init_max = 1e+40                 yes
             warm_start_slack_bound_frac = 1e-20                 yes
             warm_start_slack_bound_push = 1e-20                 yes

******************************************************************************
This program contains Ipopt, a library for large-scale nonlinear optimization.
 Ipopt is released as open source code under the Eclipse Public License (EPL).
         For more information visit http://projects.coin-or.org/Ipopt
******************************************************************************

This is Ipopt version 3.12.10, running with linear solver ma97.

Number of nonzeros in equality constraint Jacobian...:   117167
Number of nonzeros in inequality constraint Jacobian.:      213
Number of nonzeros in Lagrangian Hessian.............:    47513

Total number of variables............................:    29977
                     variables with only lower bounds:    11312
                variables with lower and upper bounds:    15135
                     variables with only upper bounds:        0
Total number of equality constraints.................:    29864
Total number of inequality constraints...............:       25
        inequality constraints with only lower bounds:        4
   inequality constraints with lower and upper bounds:        0
        inequality constraints with only upper bounds:       21

iter    objective    inf_pr   inf_du lg(mu)  ||d||  lg(rg) alpha_du alpha_pr  ls
   0 -1.5943923e-01 5.49e-02 2.00e+00  -6.0 0.00e+00    -  0.00e+00 0.00e+00   0
In iteration 0, 9 Slacks too small, adjusting variable bounds
   1 -1.5943923e-01 5.49e-02 3.84e+04  -6.0 2.86e+12    -  3.84e-12 2.93e-21h  1
   2 -1.5943925e-01 5.49e-02 3.83e+04  -6.0 1.97e+02    -  2.04e-02 4.31e-06f  1
   3 -1.5964018e-01 5.33e-02 3.73e+04  -6.0 1.00e+02    -  2.00e-02 2.94e-02h  1
   4 -1.5968335e-01 5.12e-02 3.68e+04  -6.0 9.73e+01    -  1.79e-03 3.85e-02f  1
   5 -1.5984860e-01 5.99e-02 3.63e+04  -6.0 8.85e+01    -  1.44e-02 3.76e-02h  1
   6 -1.5984319e-01 6.08e-02 3.61e+04  -6.0 5.56e+01    -  3.34e-03 6.89e-03h  3
   7 -1.5983438e-01 6.10e-02 3.58e+04  -6.0 5.43e+01    -  8.93e-03 4.48e-03h  4
   8 -1.5982122e-01 6.16e-02 3.56e+04  -6.0 5.38e+01    -  4.82e-03 6.19e-03h  4
   9 -1.5981193e-01 6.17e-02 3.47e+04  -6.0 5.30e+01    -  2.78e-02 3.94e-03h  5
iter    objective    inf_pr   inf_du lg(mu)  ||d||  lg(rg) alpha_du alpha_pr  ls
  10 -1.5997459e-01 3.08e-01 3.36e+04  -6.0 5.21e+01    -  2.90e-02 1.07e-01h  1
  11 -1.5996400e-01 3.06e-01 3.07e+04  -6.0 3.74e+01    -  9.91e-02 1.56e-02h  5
  12 -1.5995617e-01 3.04e-01 1.01e+05  -6.0 3.69e+01    -  1.61e-01 1.56e-02h  4
  13 -1.5995551e-01 3.03e-01 9.12e+04  -6.0 3.89e+01    -  4.59e-02 7.82e-04h  9
  14 -1.5996649e-01 3.01e-01 4.79e+04  -6.0 4.30e+01    -  2.28e-01 2.25e-02h  4
  15 -1.5996365e-01 3.01e-01 3.00e+04  -6.0 7.33e+01    -  2.85e-01 2.86e-03h  7
  16 -1.5996347e-01 3.00e-01 2.99e+04  -6.0 1.28e+02    -  2.15e-01 6.28e-04h 10
  17 -1.5997552e-01 3.09e-01 2.88e+04  -6.0 1.77e+02    -  3.19e-02 2.25e-02h  5
  18 -1.5997864e-01 3.08e-01 2.86e+04  -6.0 1.93e+02    -  1.51e-01 5.32e-03h  7
  19 -1.5997421e-01 3.06e-01 2.84e+04  -6.0 2.88e+02    -  3.73e-08 7.69e-03f  6
iter    objective    inf_pr   inf_du lg(mu)  ||d||  lg(rg) alpha_du alpha_pr  ls
  20 -1.5997465e-01 3.05e-01 2.82e+04  -6.0 3.30e+01  -2.0 2.28e-02 3.64e-03h  5
  21 -1.6051814e-01 2.11e+00 2.10e+05  -6.0 3.95e+01  -2.5 7.06e-02 2.77e-01h  1
  22 -1.6040893e-01 2.00e+00 2.07e+05  -6.0 4.56e+01  -2.1 1.49e-01 6.61e-02h  2
  23 -1.6038325e-01 1.99e+00 2.05e+05  -6.0 9.80e+01  -2.5 1.19e-01 4.80e-03h  6
  24 -1.6038566e-01 1.96e+00 2.03e+05  -6.0 1.52e+01  -1.2 3.64e-01 1.32e-02h  2
  25 -1.6038271e-01 1.96e+00 2.02e+05  -6.0 3.64e+01  -1.7 2.18e-01 4.68e-03h  5
  26 -1.6038266e-01 1.96e+00 2.02e+05  -6.0 4.74e+01  -2.2 1.79e-01 4.84e-05h 13
  27 -1.5959660e-01 1.89e+00 6.07e+04  -6.0 1.79e+02  -2.6 6.25e-03 2.94e-02h  2
  28 -1.5947157e-01 2.79e+00 1.07e+05  -6.0 3.42e+01  -2.2 1.86e-01 3.25e-01h  1
  29 -1.5925054e-01 2.39e+00 9.66e+04  -6.0 1.75e+01  -2.7 5.93e-01 1.54e-01h  1
iter    objective    inf_pr   inf_du lg(mu)  ||d||  lg(rg) alpha_du alpha_pr  ls
  30 -1.5922626e-01 1.68e+00 7.33e+04  -6.0 1.12e+01  -2.3 7.64e-01 3.29e-01h  1
  31 -1.5917379e-01 1.08e+00 5.33e+04  -6.0 1.61e+01  -2.7 8.70e-01 3.78e-01h  1
  32 -1.5917152e-01 7.26e-01 3.65e+04  -6.0 6.42e+00  -2.3 9.47e-01 3.36e-01h  1
  33 -1.5914982e-01 2.05e-01 1.30e+04  -6.0 6.13e+00  -2.8 7.99e-01 7.39e-01h  1
  34 -1.5818209e-01 1.27e-01 6.96e+02  -6.0 1.72e+00  -3.3 8.31e-01 1.00e+00h  1
  35 -1.5832663e-01 1.14e-01 6.23e+02  -6.0 7.07e-01  -3.7 7.48e-01 1.05e-01h  1
  36 -1.6215994e-01 1.27e-01 5.90e+01  -6.0 5.38e+00  -4.2 6.46e-01 1.00e+00f  1
  37 -1.6902108e-01 6.25e-01 2.75e+01  -6.0 5.51e+00  -4.7 7.54e-01 7.37e-01h  1
  38 -1.7156778e-01 6.65e-01 2.57e+01  -6.0 2.33e+01  -5.2 1.05e-01 8.18e-02h  1
  39 -1.7208950e-01 6.59e-01 1.73e+02  -6.0 7.31e+01  -5.6 1.78e-01 1.19e-02h  1
iter    objective    inf_pr   inf_du lg(mu)  ||d||  lg(rg) alpha_du alpha_pr  ls
  40 -1.7460112e-01 6.59e-01 1.90e+02  -6.0 8.42e+03  -6.1 1.65e-03 6.87e-04h  1
  41 -1.7679879e-01 5.52e-01 2.85e+02  -6.0 5.11e+01  -5.7 9.94e-02 1.56e-01h  1
  42 -1.7758252e-01 5.18e-01 2.66e+02  -6.0 3.63e+01  -5.3 4.55e-02 6.17e-02h  1
  43 -1.7789020e-01 5.04e-01 2.58e+02  -6.0 4.44e+01  -4.8 3.88e-02 2.65e-02h  1
  44 -1.7820531e-01 4.68e-01 1.24e+03  -6.0 3.82e+01  -5.3 2.24e-01 7.08e-02h  1
  45 -1.7853626e-01 4.56e-01 2.04e+03  -6.0 1.63e+02  -5.8 9.83e-02 1.90e-01h  1
  46 -1.7857921e-01 4.54e-01 2.05e+03  -6.0 1.14e+02  -6.3 2.42e-05 3.15e-03h  1
  47 -1.7857081e-01 4.08e-01 2.66e+03  -6.0 2.83e+01  -4.9 4.12e-01 1.02e-01f  1
  48 -1.7916376e-01 7.73e-03 9.68e+03  -6.0 1.93e+00  -4.5 1.24e-01 1.00e+00h  1
  49 -1.8014845e-01 2.68e-02 4.85e+00  -6.0 5.19e+00  -5.0 8.85e-01 1.00e+00h  1
iter    objective    inf_pr   inf_du lg(mu)  ||d||  lg(rg) alpha_du alpha_pr  ls
  50 -1.8187590e-01 2.56e-01 1.44e+00  -6.0 1.37e+01  -5.5 1.00e+00 1.00e+00h  1
  51 -1.8387025e-01 7.26e-01 1.13e+01  -6.0 3.89e+01  -6.0 1.00e+00 5.06e-01h  1
  52 -1.8482776e-01 9.15e-01 3.61e+01  -6.0 8.58e+01  -6.4 1.00e+00 1.49e-01h  1
  53 -1.8553636e-01 8.55e-01 1.63e+01  -6.0 1.44e+02  -6.9 5.64e-01 6.59e-02h  1
  54 -1.8816394e-01 1.09e+00 3.28e+00  -6.0 5.66e+01  -6.5 1.00e+00 8.53e-01h  1
  55 -1.8925077e-01 1.14e+00 5.39e+00  -6.0 1.34e+02  -7.0 4.05e-01 1.62e-01h  1
  56 -1.9469228e-01 7.68e+00 2.03e+01  -6.0 2.27e+02  -7.4 5.91e-01 4.22e-01h  1
  57 -1.9645365e-01 5.25e+00 1.31e+01  -6.0 8.82e+01  -7.0 1.00e+00 4.23e-01h  1
  58 -2.0029789e-01 2.09e+00 6.21e+00  -6.0 2.43e+02  -7.5 5.01e-01 5.80e-01h  1
  59 -2.0133660e-01 1.46e+00 1.58e+01  -6.0 8.71e+01  -7.1 7.28e-01 3.84e-01h  1
iter    objective    inf_pr   inf_du lg(mu)  ||d||  lg(rg) alpha_du alpha_pr  ls
  60 -2.0459489e-01 7.07e-01 6.48e+00  -6.0 1.85e+02  -7.5 9.06e-01 8.09e-01h  1
  61 -2.1040022e-01 2.62e+00 2.42e+01  -6.0 4.45e+02  -8.0 8.99e-01 6.79e-01h  1
  62 -2.1792764e-01 4.64e+00 5.47e+01  -6.0 1.12e+03  -8.5 7.47e-02 4.58e-01h  1
  63 -2.2153668e-01 2.80e+00 3.45e+01  -6.0 4.26e+02  -8.1 5.92e-01 6.66e-01h  1
  64 -2.2605154e-01 5.03e+00 3.44e+01  -6.0 1.26e+03  -8.5 3.28e-01 3.63e-01h  1
  65 -2.2622923e-01 4.84e+00 3.34e+01  -6.0 4.33e+02  -8.1 7.12e-01 3.86e-02h  1
  66 -2.2640349e-01 4.76e+00 3.28e+01  -6.0 1.13e+03  -8.6 1.12e-01 1.71e-02h  1
  67 -2.2977636e-01 3.40e+00 1.58e+01  -6.0 4.98e+02  -8.2 4.16e-01 7.35e-01f  1
  68 -2.3093312e-01 1.20e+00 2.88e+01  -6.0 1.78e+02  -7.7 2.23e-01 7.30e-01h  1
  69 -2.3285650e-01 1.55e+00 1.19e+01  -6.0 5.04e+02  -8.2 6.09e-01 4.72e-01h  1
iter    objective    inf_pr   inf_du lg(mu)  ||d||  lg(rg) alpha_du alpha_pr  ls
  70 -2.3304101e-01 3.83e+00 1.18e+01  -6.0 3.75e+04  -8.7 1.00e-02 7.64e-03h  1
  71 -2.3338612e-01 3.54e+00 1.83e+02  -6.0 4.60e+02  -8.3 6.97e-01 7.94e-02h  1
  72 -2.3559914e-01 2.60e+00 1.30e+02  -6.0 9.85e+02  -8.7 3.40e-01 2.71e-01h  1
  73 -2.3977902e-01 1.25e+01 1.35e+02  -6.0 2.95e+03  -9.2 2.10e-01 2.76e-01h  1
  74 -2.4131758e-01 1.61e+01 3.85e+02  -6.0 3.70e+04  -9.7 7.20e-03 3.53e-02h  1
  75 -2.4201712e-01 1.50e+01 2.59e+03  -6.0 1.12e+03  -9.3 1.89e-01 7.90e-02h  1
  76 -2.4645069e-01 6.20e+00 3.30e+03  -6.0 5.95e+02  -8.9 3.86e-01 1.00e+00h  1
  77 -2.4683853e-01 5.07e+00 2.43e+03  -6.0 4.01e+02  -8.4 2.38e-01 1.96e-01h  1
  78 -2.4691388e-01 5.05e+00 2.50e+03  -6.0 3.42e+03  -8.9 6.05e-02 4.32e-03h  1
  79 -2.4694501e-01 4.92e+00 2.06e+03  -6.0 2.64e+02  -8.5 1.87e-01 2.65e-02h  1
iter    objective    inf_pr   inf_du lg(mu)  ||d||  lg(rg) alpha_du alpha_pr  ls
  80 -2.4792515e-01 6.21e+00 1.47e+03  -6.0 9.04e+02  -9.0 2.94e-01 2.66e-01h  1
  81 -2.4819206e-01 5.15e+00 1.12e+03  -6.0 2.29e+02  -8.5 2.47e-01 2.29e-01h  1
  82 -2.4867800e-01 5.48e+00 9.55e+02  -6.0 9.53e+02  -9.0 1.16e-01 1.59e-01h  1
  83 -2.4895443e-01 4.98e+00 1.95e+03  -6.0 3.29e+02  -8.6 9.61e-01 2.28e-01h  1
  84 -2.4932395e-01 8.50e+00 1.65e+03  -6.0 3.42e+03  -9.1 4.89e-02 9.36e-02h  1
  85 -2.4954732e-01 8.44e+00 1.99e+03  -6.0 5.37e+02  -8.6 3.96e-01 1.69e-01h  1
  86 -2.4959614e-01 8.18e+00 2.26e+03  -6.0 7.52e+02  -9.1 1.29e-01 3.00e-02h  1
  87 -2.5167611e-01 2.36e+01 1.56e+03  -6.0 2.59e+03  -9.6 4.86e-01 4.15e-01f  1
  88 -2.5396300e-01 2.47e+01 4.09e+03  -6.0 1.20e+03  -9.2 2.76e-01 7.92e-01h  1
  89 -2.5609112e-01 2.36e+01 1.94e+04  -6.0 1.50e+03  -9.6 2.97e-02 6.84e-01h  1
iter    objective    inf_pr   inf_du lg(mu)  ||d||  lg(rg) alpha_du alpha_pr  ls
  90 -2.5702615e-01 1.93e+01 5.87e+05  -6.0 1.78e+03  -9.2 3.29e-03 1.86e-01h  1
  91 -2.5647906e-01 1.70e+01 5.01e+05  -6.0 1.57e+03  -9.7 4.12e-01 1.46e-01h  1
  92 -2.5632765e-01 1.57e+01 4.50e+05  -6.0 1.90e+03 -10.2 1.82e-03 1.03e-01h  1
  93 -2.5638507e-01 1.55e+01 4.43e+05  -6.0 4.30e+03 -10.6 8.66e-02 1.48e-02h  1
  94 -2.5724882e-01 1.59e+01 4.19e+05  -6.0 2.85e+04 -11.1 5.08e-03 5.44e-02h  1
  95 -2.5737242e-01 1.50e+01 3.96e+05  -6.0 1.24e+04    -  1.40e-01 5.53e-02h  1
  96 -2.5747053e-01 1.44e+01 3.81e+05  -6.0 1.39e+04    -  2.10e-01 3.67e-02h  1
  97 -2.5748957e-01 1.43e+01 3.78e+05  -6.0 9.83e+03    -  1.57e-02 9.47e-03h  1
  98 -2.5801185e-01 1.69e+01 2.76e+05  -6.0 9.59e+03    -  8.95e-03 2.69e-01f  1
  99 -2.5821510e-01 1.26e+01 2.02e+05  -6.0 5.01e+03    -  7.03e-02 2.69e-01f  1
iter    objective    inf_pr   inf_du lg(mu)  ||d||  lg(rg) alpha_du alpha_pr  ls
 100 -2.5823942e-01 1.20e+01 1.93e+05  -6.0 7.17e+03    -  2.31e-01 4.42e-02h  1
 101 -2.5834940e-01 8.53e+00 1.35e+05  -6.0 7.21e+03    -  7.14e-02 3.02e-01h  1
 102 -2.5874316e-01 4.57e+00 5.57e+04  -6.0 2.17e+03    -  4.18e-02 5.85e-01h  1
 103 -2.5875076e-01 4.48e+00 5.46e+04  -6.0 3.59e+02  -8.9 3.21e-02 2.09e-02h  1
 104 -2.5876240e-01 3.93e+00 4.77e+04  -6.0 2.04e+01  -6.7 7.01e-03 1.25e-01h  1
 105 -2.5876542e-01 3.94e+00 4.61e+04  -6.0 8.46e+02  -7.1 1.51e-03 3.43e-02f  1
 106 -2.5886203e-01 2.24e+00 2.60e+04  -6.0 2.60e+01  -6.7 4.36e-01 4.35e-01h  1
 107 -2.5893950e-01 6.71e-01 4.65e+02  -6.0 1.09e+01  -6.3 1.47e-01 1.00e+00h  1
 108 -2.5896284e-01 7.18e-01 4.83e+02  -6.0 1.93e+02  -6.8 1.12e-01 1.05e-02h  1
 109 -2.5928058e-01 3.04e+01 1.06e+02  -6.0 2.88e+01  -7.2 7.35e-01 1.00e+00h  1
iter    objective    inf_pr   inf_du lg(mu)  ||d||  lg(rg) alpha_du alpha_pr  ls
 110 -2.5934134e-01 3.62e+01 7.08e+01  -6.0 4.32e+01  -7.7 3.39e-01 3.04e-01h  1
 111 -2.5917591e-01 9.34e+00 1.05e+01  -6.0 4.32e+01  -8.2 1.00e+00 1.00e+00h  1
 112 -2.5919271e-01 4.71e+00 5.50e+00  -6.0 6.38e+01  -8.7 1.00e+00 9.58e-01h  1
 113 -2.5917872e-01 6.11e-01 8.59e-01  -6.0 1.22e+02  -9.1 1.00e+00 1.00e+00h  1
 114 -2.5919607e-01 4.00e-01 8.48e+00  -6.0 3.93e+02  -9.6 5.51e-01 3.48e-01h  2
 115 -2.5918910e-01 1.35e-01 2.31e+00  -6.0 4.72e+00  -7.4 7.65e-01 1.00e+00h  1
 116 -2.5919635e-01 1.47e+00 5.01e+00  -6.0 4.93e+01  -7.9 4.28e-01 1.00e+00h  1
 117 -2.5927448e-01 5.78e-01 7.30e-01  -6.0 4.27e+00  -6.5 1.00e+00 1.00e+00h  1
 118 -2.5932647e-01 3.23e+00 3.79e+00  -6.0 1.07e+01  -7.0 1.00e+00 9.38e-01h  1
 119 -2.5942233e-01 8.91e+00 9.99e+00  -6.0 5.97e+03    -  1.11e-01 6.63e-02h  1
iter    objective    inf_pr   inf_du lg(mu)  ||d||  lg(rg) alpha_du alpha_pr  ls
 120 -2.5962928e-01 5.48e+01 5.71e+01  -6.0 2.16e+03    -  6.57e-01 4.60e-01h  1
 121 -2.5967160e-01 3.15e+01 2.15e+01  -6.0 1.46e+03    -  9.69e-01 4.53e-01h  1
 122 -2.5963306e-01 9.68e+00 2.51e+01  -6.0 7.52e+02  -7.5 3.80e-05 1.00e+00h  1
 123 -2.5937908e-01 1.39e-01 7.24e+01  -6.0 4.80e+01  -8.0 2.12e-01 1.00e+00h  1
 124 -2.5974824e-01 2.49e+00 1.55e+01  -6.0 4.73e+02    -  7.36e-01 8.12e-01h  1
 125 -2.5968294e-01 1.58e+00 1.25e+00  -6.0 7.05e+02    -  1.00e+00 1.00e+00h  1
 126 -2.5966828e-01 1.66e+00 2.11e-01  -6.0 3.05e+02    -  1.00e+00 1.00e+00h  1
 127 -2.5966788e-01 1.83e-01 2.09e-02  -6.0 1.03e+02    -  1.00e+00 1.00e+00h  1
 128 -2.5966765e-01 2.45e-03 1.34e-03  -6.0 1.15e+01    -  1.00e+00 1.00e+00h  1
 129 -2.5966766e-01 7.51e-06 3.24e-06  -6.0 6.51e-01    -  1.00e+00 1.00e+00h  1
iter    objective    inf_pr   inf_du lg(mu)  ||d||  lg(rg) alpha_du alpha_pr  ls
 130 -2.6010216e-01 1.29e+00 7.65e+00  -7.5 1.85e+03    -  2.51e-01 2.33e-01h  1
 131 -2.6033433e-01 2.12e+00 3.41e+01  -7.5 1.27e+03    -  3.27e-01 2.06e-01h  1
 132 -2.6050827e-01 2.57e+00 4.87e+01  -7.5 1.30e+03    -  3.10e-01 1.78e-01h  1
 133 -2.6053834e-01 2.33e+00 4.60e+01  -7.5 8.47e+01  -8.4 1.09e-01 9.20e-02h  1
 134 -2.6059823e-01 1.85e+00 2.82e+01  -7.5 1.36e+02  -8.9 1.08e-01 2.06e-01h  1
 135 -2.6063596e-01 1.67e+00 4.06e+01  -7.5 1.50e+02  -9.4 2.95e-01 1.00e-01h  1
 136 -2.6089936e-01 1.33e+00 3.16e+01  -7.5 2.19e+02  -9.9 1.14e-01 6.55e-01h  1
 137 -2.6095370e-01 1.14e+00 1.21e+01  -7.5 1.27e+03    -  2.92e-01 1.97e-01h  1
 138 -2.6115412e-01 5.03e+00 4.17e+01  -7.5 1.08e+03    -  6.84e-01 8.82e-01h  1
 139 -2.6116660e-01 3.48e+00 2.73e+02  -7.5 2.52e+02    -  8.76e-01 3.36e-01h  1
iter    objective    inf_pr   inf_du lg(mu)  ||d||  lg(rg) alpha_du alpha_pr  ls
 140 -2.6121320e-01 2.35e+00 2.08e+02  -7.5 2.57e+02    -  5.67e-01 1.00e+00h  1
 141 -2.6124062e-01 1.15e+00 1.98e+02  -7.5 2.24e+02 -10.4 4.56e-01 5.10e-01h  1
 142 -2.6125568e-01 8.54e-01 1.76e+02  -7.5 3.77e+02  -9.9 2.83e-01 2.56e-01h  1
 143 -2.6126538e-01 1.66e-01 3.24e+06  -7.5 4.28e+01  -9.5 4.37e-04 1.00e+00h  1
 144 -2.6131976e-01 2.01e-01 4.21e+02  -7.5 7.49e+01  -9.1 8.60e-01 1.00e+00h  1
 145 -2.6128820e-01 3.77e-02 2.63e-01  -7.5 4.19e+01  -8.6 1.00e+00 1.00e+00h  1
 146 -2.6130257e-01 1.94e-01 7.46e-01  -7.5 2.73e+02  -9.1 1.00e+00 2.88e-01h  1
 147 -2.6132468e-01 4.06e-01 4.64e-01  -7.5 9.11e+01  -8.7 1.00e+00 1.00e+00h  1
 148 -2.6134357e-01 2.61e-01 1.85e-01  -7.5 4.26e+01  -8.3 1.00e+00 1.00e+00h  1
 149 -2.6136858e-01 7.42e-01 5.38e-01  -7.5 2.92e+02  -8.7 9.13e-01 2.23e-01h  1
iter    objective    inf_pr   inf_du lg(mu)  ||d||  lg(rg) alpha_du alpha_pr  ls
 150 -2.6141537e-01 2.00e+00 1.03e+00  -7.5 8.85e+01  -8.3 1.00e+00 1.00e+00h  1
 151 -2.6145533e-01 1.55e+00 3.86e-01  -7.5 4.03e+01  -7.9 9.70e-01 1.00e+00h  1
 152 -2.6149349e-01 3.45e+00 9.11e-01  -7.5 2.77e+02  -8.4 2.68e-01 1.46e-01h  1
 153 -2.6149621e-01 3.29e+00 1.01e+01  -7.5 6.14e+01  -7.9 1.00e+00 5.16e-02h  1
 154 -2.6162879e-01 1.06e+01 2.23e+00  -7.5 2.15e+02  -8.4 4.31e-01 6.48e-01h  1
 155 -2.6165391e-01 1.15e+01 1.55e+00  -7.5 7.72e+01  -8.0 3.63e-01 3.81e-01h  1
 156 -2.6166128e-01 1.15e+01 7.62e+00  -7.5 2.95e+02  -8.5 1.27e-01 2.81e-02h  1
 157 -2.6189821e-01 1.25e+01 3.69e+00  -7.5 2.71e+04    -  3.57e-03 3.36e-02h  1
 158 -2.6194006e-01 7.03e+00 1.47e+01  -7.5 1.20e+03    -  6.87e-02 4.46e-01h  1
 159 -2.6194232e-01 6.70e+00 6.59e+00  -7.5 3.81e+01  -7.1 3.34e-01 4.71e-02h  1
iter    objective    inf_pr   inf_du lg(mu)  ||d||  lg(rg) alpha_du alpha_pr  ls
 160 -2.6206192e-01 6.29e+00 1.37e+01  -7.5 3.82e+03    -  1.81e-01 9.81e-02h  1
 161 -2.6219333e-01 1.56e+00 6.00e+01  -7.5 5.56e+02    -  2.11e-01 9.33e-01h  1
 162 -2.6224176e-01 7.51e-01 2.41e+02  -7.5 2.25e+02    -  1.00e-01 7.48e-01h  1
 163 -2.6225032e-01 6.30e-01 3.41e+02  -7.5 1.80e+02    -  2.48e-02 1.74e-01h  1
 164 -2.6227009e-01 4.11e-01 3.33e+02  -7.5 2.06e+02    -  3.27e-01 4.40e-01h  1
 165 -2.6227580e-01 3.63e-01 4.93e+02  -7.5 3.16e+02    -  4.93e-01 1.28e-01h  1
 166 -2.6228034e-01 3.29e-01 1.60e+03  -7.5 3.32e+02    -  7.49e-01 1.05e-01h  1
 167 -2.6231077e-01 1.26e+00 1.31e+02  -7.5 4.25e+02    -  2.02e-01 5.97e-01h  1
 168 -2.6231893e-01 1.13e+00 1.00e+03  -7.5 2.67e+02    -  1.96e-01 1.17e-01h  1
 169 -2.6233113e-01 1.78e+00 6.83e+06  -7.5 3.61e+02    -  6.61e-04 8.31e-01h  1
iter    objective    inf_pr   inf_du lg(mu)  ||d||  lg(rg) alpha_du alpha_pr  ls
 170 -2.6249884e-01 2.96e+00 2.97e+03  -7.5 3.85e+02    -  6.51e-01 1.00e+00h  1
 171 -2.6241435e-01 1.26e+00 1.22e+03  -7.5 9.57e+01    -  6.39e-01 5.86e-01h  1
 172 -2.6238539e-01 9.22e-01 8.87e+02  -7.5 1.38e+02    -  3.77e-01 2.71e-01h  1
 173 -2.6238517e-01 7.72e-01 7.40e+02  -7.5 1.60e+02    -  5.35e-01 1.64e-01h  1
 174 -2.6234808e-01 5.26e-02 4.68e+01  -7.5 5.37e+01    -  1.57e-01 1.00e+00h  1
 175 -2.6234866e-01 2.13e-02 1.74e+00  -7.5 3.29e+01    -  8.04e-01 1.00e+00h  1
 176 -2.6235311e-01 2.32e-02 5.27e-02  -7.5 3.60e+01    -  1.00e+00 1.00e+00h  1
 177 -2.6235776e-01 5.50e-02 6.16e-01  -7.5 1.30e+02    -  4.32e-01 3.65e-01h  1
 178 -2.6236369e-01 1.17e-01 5.71e-02  -7.5 8.07e+01    -  1.00e+00 1.00e+00h  1
 179 -2.6236665e-01 9.56e-02 1.68e+01  -7.5 9.32e+01    -  6.70e-01 3.40e-01h  1
iter    objective    inf_pr   inf_du lg(mu)  ||d||  lg(rg) alpha_du alpha_pr  ls
 180 -2.6237556e-01 1.50e-01 3.31e-01  -7.5 9.10e+01    -  1.00e+00 1.00e+00h  1
 181 -2.6237989e-01 1.20e-01 2.08e+01  -7.5 1.00e+02    -  4.47e-01 3.65e-01h  1
 182 -2.6239254e-01 2.03e-01 5.26e+00  -7.5 1.05e+02    -  1.00e+00 1.00e+00h  1
 183 -2.6239712e-01 1.86e-01 3.23e+01  -7.5 1.73e+02    -  2.16e-01 2.36e-01h  1
 184 -2.6239906e-01 2.55e-02 2.23e+05  -7.5 2.44e+01    -  4.15e-03 1.00e+00f  1
 185 -2.6239887e-01 5.65e-03 4.90e+01  -7.5 1.69e+01    -  9.78e-01 1.00e+00h  1
 186 -2.6240316e-01 7.11e-01 3.20e-01  -7.5 6.78e+01    -  9.98e-01 1.00e+00h  1
 187 -2.6240087e-01 3.76e-03 5.72e-05  -7.5 9.30e+00    -  1.00e+00 1.00e+00h  1
 188 -2.6240089e-01 4.61e-06 1.86e-07  -7.5 2.97e-01    -  1.00e+00 1.00e+00h  1
 189 -2.6240089e-01 4.18e-10 8.96e-13  -7.5 4.35e-04    -  1.00e+00 1.00e+00h  1
iter    objective    inf_pr   inf_du lg(mu)  ||d||  lg(rg) alpha_du alpha_pr  ls
 190 -2.6241247e-01 6.66e-02 2.96e+00  -9.0 3.95e+02    -  5.89e-01 2.65e-01h  1
 191 -2.6241643e-01 1.40e-01 4.87e+00  -9.0 2.83e+02    -  8.16e-01 1.70e-01h  1
 192 -2.6241857e-01 1.29e+00 1.51e+00  -9.0 2.10e+02    -  5.40e-01 6.67e-01h  1
 193 -2.6241859e-01 4.77e-01 6.39e-01  -9.0 6.40e+01    -  5.42e-01 5.70e-01h  1
 194 -2.6241851e-01 4.10e-02 1.54e-03  -9.0 2.72e+01    -  1.00e+00 1.00e+00h  1
 195 -2.6241849e-01 1.99e-05 1.55e-07  -9.0 6.51e-01    -  1.00e+00 1.00e+00h  1
 196 -2.6241849e-01 2.82e-10 4.82e-13  -9.0 1.85e-04    -  1.00e+00 1.00e+00h  1

Number of Iterations....: 196

                                   (scaled)                 (unscaled)
Objective...............:  -2.6241849376491683e-01   -2.6241849376491683e-01
Dual infeasibility......:   4.8178128153608668e-13    4.8178128153608668e-13
Constraint violation....:   2.8207958267367078e-10    2.8207958267367078e-10
Complementarity.........:   9.1295964149639296e-10    9.1295964149639296e-10
Overall NLP error.......:   9.1295964149639296e-10    9.1295964149639296e-10


Number of objective function evaluations             = 319
Number of objective gradient evaluations             = 197
Number of equality constraint evaluations            = 319
Number of inequality constraint evaluations          = 320
Number of equality constraint Jacobian evaluations   = 197
Number of inequality constraint Jacobian evaluations = 197
Number of Lagrangian Hessian evaluations             = 196
Total CPU secs in IPOPT (w/o function evaluations)   =    446.226
Total CPU secs in NLP function evaluations           =      7.168

EXIT: Optimal Solution Found.
